\ENCODING=ISO-8859-1
\Problem name: ilog.cplex

Minimize
 obj1: 108893 x1 + 91747 x2 + 99646 x3 + 102720 x4 + 96234 x5 + 102305 x6
       + 92617 x7 + 105797 x8 + 96291 x9 + 91361 x10 + 97243 x11 + 95210 x12
       + 90308 x13 + 90049 x14 + 98918 x15 + 109044 x16 + 109368 x17
       + 98845 x18 + 92449 x19 + 96816 x20 + 91267 x21 + 105668 x22 + 95834 x23
       + 109245 x24 + 94797 x25 + 98089 x26 + 108677 x27 + 94275 x28
       + 96015 x29 + 109245 x30 + 90784 x31 + 93399 x32 + 105660 x33
       + 94878 x34 + 98844 x35 + 90478 x36 + 102038 x37 + 102365 x38
       + 92106 x39 + 99015 x40 + 109512 x41 + 101707 x42 + 101558 x43
       + 103239 x44 + 109138 x45 + 103128 x46 + 91352 x47 + 93384 x48
       + 105066 x49 + 106286 x50 + 106107 x51 + 96180 x52 + 107966 x53
       + 92058 x54 + 93170 x55 + 97834 x56 + 95084 x57 + 99408 x58 + 95071 x59
       + 108713 x60 + 106411 x61 + 108043 x62 + 102905 x63 + 98398 x64
       + 97051 x65 + 101944 x66 + 91022 x67 + 96669 x68 + 93461 x69
       + 106166 x70 + 103380 x71 + 97757 x72 + 103206 x73 + 100972 x74
       + 99074 x75 + 109918 x76 + 109542 x77 + 102381 x78 + 102431 x79
       + 105008 x80 + 93938 x81 + 95309 x82 + 100697 x83 + 93019 x84
       + 90138 x85 + 93808 x86 + 99060 x87 + 103610 x88 + 96591 x89
       + 100808 x90 + 92894 x91 + 102977 x92 + 106613 x93 + 104323 x94
       + 104973 x95 + 106800 x96 + 103785 x97 + 92267 x98 + 108818 x99
       + 92959 x100 + 93870 x101 + 93810 x102 + 98475 x103 + 91370 x104
       + 103905 x105 + 101657 x106 + 109670 x107 + 92480 x108 + 94167 x109
       + 96645 x110 + 107671 x111 + 90863 x112 + 99347 x113 + 103771 x114
       + 93117 x115 + 105821 x116 + 101529 x117 + 97025 x118 + 98653 x119
       + 97029 x120 + 99978 x121 + 96232 x122 + 93685 x123 + 109405 x124
       + 103359 x125 + 100231 x126 + 90853 x127 + 97609 x128 + 98489 x129
       + 103790 x130 + 91614 x131 + 95111 x132 + 109529 x133 + 107372 x134
       + 90683 x135 + 102506 x136 + 102451 x137 + 97917 x138 + 103323 x139
       + 95571 x140 + 90583 x141 + 105264 x142 + 107403 x143 + 91460 x144
       + 105072 x145 + 91898 x146 + 107257 x147 + 100433 x148 + 99676 x149
       + 98199 x150 + 99547 x151 + 103348 x152 + 91074 x153 + 107842 x154
       + 95922 x155 + 92943 x156 + 98220 x157 + 96192 x158 + 92411 x159
       + 100421 x160 + 97275 x161 + 98255 x162 + 91315 x163 + 97911 x164
       + 92242 x165 + 102195 x166 + 97771 x167 + 102091 x168 + 95691 x169
       + 99391 x170 + 90216 x171 + 104607 x172 + 98803 x173 + 102702 x174
       + 101656 x175 + 100853 x176 + 105471 x177 + 100840 x178 + 106948 x179
       + 100275 x180 + 98571 x181 + 104995 x182 + 100795 x183 + 106150 x184
       + 94981 x185 + 97385 x186 + 98777 x187 + 108847 x188 + 106318 x189
       + 100481 x190 + 101460 x191 + 103179 x192 + 103495 x193 + 108657 x194
       + 101808 x195 + 94450 x196 + 95969 x197 + 92401 x198 + 104048 x199
       + 94677 x200 + 94904 x201 + 105398 x202 + 100378 x203 + 106222 x204
       + 96762 x205 + 106058 x206 + 107823 x207 + 106922 x208 + 105666 x209
       + 105736 x210 + 102692 x211 + 104736 x212 + 95025 x213 + 97636 x214
       + 102641 x215 + 94507 x216 + 96809 x217 + 92732 x218 + 94451 x219
       + 94594 x220 + 100263 x221 + 92064 x222 + 109441 x223 + 106952 x224
       + 100967 x225 + 98335 x226 + 107797 x227 + 90642 x228 + 105830 x229
       + 94016 x230 + 108136 x231 + 105808 x232 + 109973 x233 + 108004 x234
       + 109267 x235 + 92858 x236 + 97364 x237 + 98366 x238 + 97366 x239
       + 99839 x240 + 99978 x241 + 107202 x242 + 91445 x243 + 95558 x244
       + 90863 x245 + 105846 x246 + 97035 x247 + 96085 x248 + 96943 x249
       + 97982 x250 + 99418 x251 + 97747 x252 + 107823 x253 + 97404 x254
       + 97518 x255 + 98196 x256 + 96240 x257 + 103625 x258 + 105100 x259
       + 107619 x260 + 91674 x261 + 103454 x262 + 109535 x263 + 92148 x264
       + 98224 x265 + 100901 x266 + 99561 x267 + 109218 x268 + 98654 x269
       + 104057 x270 + 97084 x271 + 107650 x272 + 100489 x273 + 109787 x274
       + 99827 x275 + 107774 x276 + 94528 x277 + 104885 x278 + 103982 x279
       + 95006 x280 + 91379 x281 + 105828 x282 + 109017 x283 + 94116 x284
       + 97377 x285 + 108343 x286 + 90400 x287 + 100791 x288 + 107696 x289
       + 92678 x290 + 100241 x291 + 92099 x292 + 91508 x293 + 90850 x294
       + 100708 x295 + 98160 x296 + 101711 x297 + 108050 x298 + 90588 x299
       + 152088 x300 + 18616 x301 + 20221 x302 + 21187 x303 + 20515 x304
       + 20502 x305 + 18271 x306 + 19276 x307 + 19313 x308 + 18165 x309
       + 19885 x310 + 21572 x311 + 18681 x312 + 18306 x313 + 18797 x314
       + 19732 x315 + 20222 x316 + 21968 x317 + 18085 x318 + 21033 x319
       + 19255 x320 + 20927 x321 + 21423 x322 + 21488 x323 + 19406 x324
       + 20256 x325 + 19919 x326 + 21864 x327 + 18621 x328 + 18791 x329
       + 20258 x330 + 20426 x331 + 21539 x332 + 20782 x333 + 20861 x334
       + 21008 x335 + 19861 x336 + 20974 x337 + 20239 x338 + 21109 x339
       + 19465 x340 + 21633 x341 + 19447 x342 + 20247 x343 + 20477 x344
       + 19787 x345 + 18753 x346 + 21661 x347 + 18366 x348 + 21960 x349
       + 19132 x350 + 18716 x351 + 18352 x352 + 18155 x353 + 18140 x354
       + 20992 x355 + 18001 x356 + 20651 x357 + 20980 x358 + 20037 x359
       + 21694 x360
Subject To
 c1:   x12 - x17 + x20 - x22 + x24 + x35 + x39 - x44  = 0
 c2:   x72 - x77 + x80 - x82 + x84 + x95 + x99 - x104  = 0
 c3:   x132 - x137 + x140 - x142 + x144 + x155 + x159 - x164  = 0
 c4:   x192 - x197 + x200 - x202 + x204 + x215 + x219 - x224  = -1
 c5:   x252 - x257 + x260 - x262 + x264 + x275 + x279 - x284  = 0
 c6:   x1 + x9 - x10 - x16 + x19 + x26 + x31 - x34 + x38 - x40 + x41 - x54
       - x56  = 0
 c7:   x61 + x69 - x70 - x76 + x79 + x86 + x91 - x94 + x98 - x100 + x101 - x114
       - x116  = 0
 c8:   x121 + x129 - x130 - x136 + x139 + x146 + x151 - x154 + x158 - x160
       + x161 - x174 - x176  = 0
 c9:   x181 + x189 - x190 - x196 + x199 + x206 + x211 - x214 + x218 - x220
       + x221 - x234 - x236  = 0
 c10:  x241 + x249 - x250 - x256 + x259 + x266 + x271 - x274 + x278 - x280
       + x281 - x294 - x296  = -1
 c11:  x3 + x5 + x27 - x28 - x31 - x36 - x37 + x44 + x49 + x53 - x55 + x59
       - x60  = 0
 c12:  x63 + x65 + x87 - x88 - x91 - x96 - x97 + x104 + x109 + x113 - x115
       + x119 - x120  = 0
 c13:  x123 + x125 + x147 - x148 - x151 - x156 - x157 + x164 + x169 + x173
       - x175 + x179 - x180  = 0
 c14:  x183 + x185 + x207 - x208 - x211 - x216 - x217 + x224 + x229 + x233
       - x235 + x239 - x240  = 0
 c15:  x243 + x245 + x267 - x268 - x271 - x276 - x277 + x284 + x289 + x293
       - x295 + x299 - x300  = 1
 c16:  - x5 + x8 + x17 - x20 - x30 + x32 - x41 + x42 - x43 - x48 + x52 + x54
        = 0
 c17:  - x65 + x68 + x77 - x80 - x90 + x92 - x101 + x102 - x103 - x108 + x112
       + x114  = 0
 c18:  - x125 + x128 + x137 - x140 - x150 + x152 - x161 + x162 - x163 - x168
       + x172 + x174  = -1
 c19:  - x185 + x188 + x197 - x200 - x210 + x212 - x221 + x222 - x223 - x228
       + x232 + x234  = 0
 c20:  - x245 + x248 + x257 - x260 - x270 + x272 - x281 + x282 - x283 - x288
       + x292 + x294  = 0
 c21:  - x2 + x6 - x9 - x11 + x13 - x14 + x15 + x21 + x34 - x35 + x37 + x43
       - x49  = 0
 c22:  - x62 + x66 - x69 - x71 + x73 - x74 + x75 + x81 + x94 - x95 + x97 + x103
       - x109  = 0
 c23:  - x122 + x126 - x129 - x131 + x133 - x134 + x135 + x141 + x154 - x155
       + x157 + x163 - x169  = 1
 c24:  - x182 + x186 - x189 - x191 + x193 - x194 + x195 + x201 + x214 - x215
       + x217 + x223 - x229  = 0
 c25:  - x242 + x246 - x249 - x251 + x253 - x254 + x255 + x261 + x274 - x275
       + x277 + x283 - x289  = 0
 c26:  x4 - x6 + x14 + x23 - x29 + x40 - x45 - x46 - x51 - x52 + x55 - x59  = 0
 c27:  x64 - x66 + x74 + x83 - x89 + x100 - x105 - x106 - x111 - x112 + x115
       - x119  = 0
 c28:  x124 - x126 + x134 + x143 - x149 + x160 - x165 - x166 - x171 - x172
       + x175 - x179  = 0
 c29:  x184 - x186 + x194 + x203 - x209 + x220 - x225 - x226 - x231 - x232
       + x235 - x239  = 0
 c30:  x244 - x246 + x254 + x263 - x269 + x280 - x285 - x286 - x291 - x292
       + x295 - x299  = 0
 c31:  - x4 + x10 + x11 - x12 - x15 + x18 - x26 + x46 - x50 - x53 + x58  = 0
 c32:  - x64 + x70 + x71 - x72 - x75 + x78 - x86 + x106 - x110 - x113 + x118
        = 0
 c33:  - x124 + x130 + x131 - x132 - x135 + x138 - x146 + x166 - x170 - x173
       + x178  = 0
 c34:  - x184 + x190 + x191 - x192 - x195 + x198 - x206 + x226 - x230 - x233
       + x238  = 0
 c35:  - x244 + x250 + x251 - x252 - x255 + x258 - x266 + x286 - x290 - x293
       + x298  = 0
 c36:  x2 - x3 - x32 - x33 + x36 - x38 - x39 + x45 - x47 + x48 + x57  = -1
 c37:  x62 - x63 - x92 - x93 + x96 - x98 - x99 + x105 - x107 + x108 + x117
        = -1
 c38:  x122 - x123 - x152 - x153 + x156 - x158 - x159 + x165 - x167 + x168
       + x177  = 0
 c39:  x182 - x183 - x212 - x213 + x216 - x218 - x219 + x225 - x227 + x228
       + x237  = 0
 c40:  x242 - x243 - x272 - x273 + x276 - x278 - x279 + x285 - x287 + x288
       + x297  = 0
 c41:  - x1 - x7 - x18 - x21 + x22 + x25 - x27 - x42 + x47 + x50 + x51 + x56
       - x57 + x60  = 0
 c42:  - x61 - x67 - x78 - x81 + x82 + x85 - x87 - x102 + x107 + x110 + x111
       + x116 - x117 + x120  = 1
 c43:  - x121 - x127 - x138 - x141 + x142 + x145 - x147 - x162 + x167 + x170
       + x171 + x176 - x177 + x180  = 0
 c44:  - x181 - x187 - x198 - x201 + x202 + x205 - x207 - x222 + x227 + x230
       + x231 + x236 - x237 + x240  = 0
 c45:  - x241 - x247 - x258 - x261 + x262 + x265 - x267 - x282 + x287 + x290
       + x291 + x296 - x297 + x300  = 0
 c46:  x7 - x8 - x13 + x16 - x19 - x23 - x24 - x25 + x28 + x29 + x30 + x33
       - x58  = 1
 c47:  x67 - x68 - x73 + x76 - x79 - x83 - x84 - x85 + x88 + x89 + x90 + x93
       - x118  = 0
 c48:  x127 - x128 - x133 + x136 - x139 - x143 - x144 - x145 + x148 + x149
       + x150 + x153 - x178  = 0
 c49:  x187 - x188 - x193 + x196 - x199 - x203 - x204 - x205 + x208 + x209
       + x210 + x213 - x238  = 1
 c50:  x247 - x248 - x253 + x256 - x259 - x263 - x264 - x265 + x268 + x269
       + x270 + x273 - x298  = 0
 c51:  4 x1 + 4 x61 + 4 x121 + 4 x181 + 4 x241 - 10 x301 <= 0
 c52:  4 x2 + 4 x62 + 4 x122 + 4 x182 + 4 x242 - 11 x302 <= 0
 c53:  4 x3 + 4 x63 + 4 x123 + 4 x183 + 4 x243 - 9 x303 <= 0
 c54:  4 x4 + 4 x64 + 4 x124 + 4 x184 + 4 x244 - 9 x304 <= 0
 c55:  4 x5 + 4 x65 + 4 x125 + 4 x185 + 4 x245 - 11 x305 <= 0
 c56:  4 x6 + 4 x66 + 4 x126 + 4 x186 + 4 x246 - 10 x306 <= 0
 c57:  4 x7 + 4 x67 + 4 x127 + 4 x187 + 4 x247 - 11 x307 <= 0
 c58:  4 x8 + 4 x68 + 4 x128 + 4 x188 + 4 x248 - 10 x308 <= 0
 c59:  4 x9 + 4 x69 + 4 x129 + 4 x189 + 4 x249 - 10 x309 <= 0
 c60:  4 x10 + 4 x70 + 4 x130 + 4 x190 + 4 x250 - 11 x310 <= 0
 c61:  4 x11 + 4 x71 + 4 x131 + 4 x191 + 4 x251 - 9 x311 <= 0
 c62:  4 x12 + 4 x72 + 4 x132 + 4 x192 + 4 x252 - 10 x312 <= 0
 c63:  4 x13 + 4 x73 + 4 x133 + 4 x193 + 4 x253 - 10 x313 <= 0
 c64:  4 x14 + 4 x74 + 4 x134 + 4 x194 + 4 x254 - 11 x314 <= 0
 c65:  4 x15 + 4 x75 + 4 x135 + 4 x195 + 4 x255 - 10 x315 <= 0
 c66:  4 x16 + 4 x76 + 4 x136 + 4 x196 + 4 x256 - 10 x316 <= 0
 c67:  4 x17 + 4 x77 + 4 x137 + 4 x197 + 4 x257 - 11 x317 <= 0
 c68:  4 x18 + 4 x78 + 4 x138 + 4 x198 + 4 x258 - 10 x318 <= 0
 c69:  4 x19 + 4 x79 + 4 x139 + 4 x199 + 4 x259 - 10 x319 <= 0
 c70:  4 x20 + 4 x80 + 4 x140 + 4 x200 + 4 x260 - 10 x320 <= 0
 c71:  4 x21 + 4 x81 + 4 x141 + 4 x201 + 4 x261 - 9 x321 <= 0
 c72:  4 x22 + 4 x82 + 4 x142 + 4 x202 + 4 x262 - 10 x322 <= 0
 c73:  4 x23 + 4 x83 + 4 x143 + 4 x203 + 4 x263 - 10 x323 <= 0
 c74:  4 x24 + 4 x84 + 4 x144 + 4 x204 + 4 x264 - 11 x324 <= 0
 c75:  4 x25 + 4 x85 + 4 x145 + 4 x205 + 4 x265 - 9 x325 <= 0
 c76:  4 x26 + 4 x86 + 4 x146 + 4 x206 + 4 x266 - 10 x326 <= 0
 c77:  4 x27 + 4 x87 + 4 x147 + 4 x207 + 4 x267 - 9 x327 <= 0
 c78:  4 x28 + 4 x88 + 4 x148 + 4 x208 + 4 x268 - 9 x328 <= 0
 c79:  4 x29 + 4 x89 + 4 x149 + 4 x209 + 4 x269 - 10 x329 <= 0
 c80:  4 x30 + 4 x90 + 4 x150 + 4 x210 + 4 x270 - 9 x330 <= 0
 c81:  4 x31 + 4 x91 + 4 x151 + 4 x211 + 4 x271 - 10 x331 <= 0
 c82:  4 x32 + 4 x92 + 4 x152 + 4 x212 + 4 x272 - 9 x332 <= 0
 c83:  4 x33 + 4 x93 + 4 x153 + 4 x213 + 4 x273 - 10 x333 <= 0
 c84:  4 x34 + 4 x94 + 4 x154 + 4 x214 + 4 x274 - 10 x334 <= 0
 c85:  4 x35 + 4 x95 + 4 x155 + 4 x215 + 4 x275 - 10 x335 <= 0
 c86:  4 x36 + 4 x96 + 4 x156 + 4 x216 + 4 x276 - 10 x336 <= 0
 c87:  4 x37 + 4 x97 + 4 x157 + 4 x217 + 4 x277 - 9 x337 <= 0
 c88:  4 x38 + 4 x98 + 4 x158 + 4 x218 + 4 x278 - 10 x338 <= 0
 c89:  4 x39 + 4 x99 + 4 x159 + 4 x219 + 4 x279 - 9 x339 <= 0
 c90:  4 x40 + 4 x100 + 4 x160 + 4 x220 + 4 x280 - 10 x340 <= 0
 c91:  4 x41 + 4 x101 + 4 x161 + 4 x221 + 4 x281 - 10 x341 <= 0
 c92:  4 x42 + 4 x102 + 4 x162 + 4 x222 + 4 x282 - 10 x342 <= 0
 c93:  4 x43 + 4 x103 + 4 x163 + 4 x223 + 4 x283 - 10 x343 <= 0
 c94:  4 x44 + 4 x104 + 4 x164 + 4 x224 + 4 x284 - 9 x344 <= 0
 c95:  4 x45 + 4 x105 + 4 x165 + 4 x225 + 4 x285 - 10 x345 <= 0
 c96:  4 x46 + 4 x106 + 4 x166 + 4 x226 + 4 x286 - 10 x346 <= 0
 c97:  4 x47 + 4 x107 + 4 x167 + 4 x227 + 4 x287 - 10 x347 <= 0
 c98:  4 x48 + 4 x108 + 4 x168 + 4 x228 + 4 x288 - 10 x348 <= 0
 c99:  4 x49 + 4 x109 + 4 x169 + 4 x229 + 4 x289 - 11 x349 <= 0
 c100: 4 x50 + 4 x110 + 4 x170 + 4 x230 + 4 x290 - 10 x350 <= 0
 c101: 4 x51 + 4 x111 + 4 x171 + 4 x231 + 4 x291 - 10 x351 <= 0
 c102: 4 x52 + 4 x112 + 4 x172 + 4 x232 + 4 x292 - 10 x352 <= 0
 c103: 4 x53 + 4 x113 + 4 x173 + 4 x233 + 4 x293 - 9 x353 <= 0
 c104: 4 x54 + 4 x114 + 4 x174 + 4 x234 + 4 x294 - 11 x354 <= 0
 c105: 4 x55 + 4 x115 + 4 x175 + 4 x235 + 4 x295 - 9 x355 <= 0
 c106: 4 x56 + 4 x116 + 4 x176 + 4 x236 + 4 x296 - 10 x356 <= 0
 c107: 4 x57 + 4 x117 + 4 x177 + 4 x237 + 4 x297 - 10 x357 <= 0
 c108: 4 x58 + 4 x118 + 4 x178 + 4 x238 + 4 x298 - 11 x358 <= 0
 c109: 4 x59 + 4 x119 + 4 x179 + 4 x239 + 4 x299 - 9 x359 <= 0
 c110: 4 x60 + 4 x120 + 4 x180 + 4 x240 + 4 x300 - 15 x360 <= 0
Bounds
 0 <= x1 <= 1
 0 <= x2 <= 1
 0 <= x3 <= 1
 0 <= x4 <= 1
 0 <= x5 <= 1
 0 <= x6 <= 1
 0 <= x7 <= 1
 0 <= x8 <= 1
 0 <= x9 <= 1
 0 <= x10 <= 1
 0 <= x11 <= 1
 0 <= x12 <= 1
 0 <= x13 <= 1
 0 <= x14 <= 1
 0 <= x15 <= 1
 0 <= x16 <= 1
 0 <= x17 <= 1
 0 <= x18 <= 1
 0 <= x19 <= 1
 0 <= x20 <= 1
 0 <= x21 <= 1
 0 <= x22 <= 1
 0 <= x23 <= 1
 0 <= x24 <= 1
 0 <= x25 <= 1
 0 <= x26 <= 1
 0 <= x27 <= 1
 0 <= x28 <= 1
 0 <= x29 <= 1
 0 <= x30 <= 1
 0 <= x31 <= 1
 0 <= x32 <= 1
 0 <= x33 <= 1
 0 <= x34 <= 1
 0 <= x35 <= 1
 0 <= x36 <= 1
 0 <= x37 <= 1
 0 <= x38 <= 1
 0 <= x39 <= 1
 0 <= x40 <= 1
 0 <= x41 <= 1
 0 <= x42 <= 1
 0 <= x43 <= 1
 0 <= x44 <= 1
 0 <= x45 <= 1
 0 <= x46 <= 1
 0 <= x47 <= 1
 0 <= x48 <= 1
 0 <= x49 <= 1
 0 <= x50 <= 1
 0 <= x51 <= 1
 0 <= x52 <= 1
 0 <= x53 <= 1
 0 <= x54 <= 1
 0 <= x55 <= 1
 0 <= x56 <= 1
 0 <= x57 <= 1
 0 <= x58 <= 1
 0 <= x59 <= 1
 0 <= x60 <= 1
 0 <= x61 <= 1
 0 <= x62 <= 1
 0 <= x63 <= 1
 0 <= x64 <= 1
 0 <= x65 <= 1
 0 <= x66 <= 1
 0 <= x67 <= 1
 0 <= x68 <= 1
 0 <= x69 <= 1
 0 <= x70 <= 1
 0 <= x71 <= 1
 0 <= x72 <= 1
 0 <= x73 <= 1
 0 <= x74 <= 1
 0 <= x75 <= 1
 0 <= x76 <= 1
 0 <= x77 <= 1
 0 <= x78 <= 1
 0 <= x79 <= 1
 0 <= x80 <= 1
 0 <= x81 <= 1
 0 <= x82 <= 1
 0 <= x83 <= 1
 0 <= x84 <= 1
 0 <= x85 <= 1
 0 <= x86 <= 1
 0 <= x87 <= 1
 0 <= x88 <= 1
 0 <= x89 <= 1
 0 <= x90 <= 1
 0 <= x91 <= 1
 0 <= x92 <= 1
 0 <= x93 <= 1
 0 <= x94 <= 1
 0 <= x95 <= 1
 0 <= x96 <= 1
 0 <= x97 <= 1
 0 <= x98 <= 1
 0 <= x99 <= 1
 0 <= x100 <= 1
 0 <= x101 <= 1
 0 <= x102 <= 1
 0 <= x103 <= 1
 0 <= x104 <= 1
 0 <= x105 <= 1
 0 <= x106 <= 1
 0 <= x107 <= 1
 0 <= x108 <= 1
 0 <= x109 <= 1
 0 <= x110 <= 1
 0 <= x111 <= 1
 0 <= x112 <= 1
 0 <= x113 <= 1
 0 <= x114 <= 1
 0 <= x115 <= 1
 0 <= x116 <= 1
 0 <= x117 <= 1
 0 <= x118 <= 1
 0 <= x119 <= 1
 0 <= x120 <= 1
 0 <= x121 <= 1
 0 <= x122 <= 1
 0 <= x123 <= 1
 0 <= x124 <= 1
 0 <= x125 <= 1
 0 <= x126 <= 1
 0 <= x127 <= 1
 0 <= x128 <= 1
 0 <= x129 <= 1
 0 <= x130 <= 1
 0 <= x131 <= 1
 0 <= x132 <= 1
 0 <= x133 <= 1
 0 <= x134 <= 1
 0 <= x135 <= 1
 0 <= x136 <= 1
 0 <= x137 <= 1
 0 <= x138 <= 1
 0 <= x139 <= 1
 0 <= x140 <= 1
 0 <= x141 <= 1
 0 <= x142 <= 1
 0 <= x143 <= 1
 0 <= x144 <= 1
 0 <= x145 <= 1
 0 <= x146 <= 1
 0 <= x147 <= 1
 0 <= x148 <= 1
 0 <= x149 <= 1
 0 <= x150 <= 1
 0 <= x151 <= 1
 0 <= x152 <= 1
 0 <= x153 <= 1
 0 <= x154 <= 1
 0 <= x155 <= 1
 0 <= x156 <= 1
 0 <= x157 <= 1
 0 <= x158 <= 1
 0 <= x159 <= 1
 0 <= x160 <= 1
 0 <= x161 <= 1
 0 <= x162 <= 1
 0 <= x163 <= 1
 0 <= x164 <= 1
 0 <= x165 <= 1
 0 <= x166 <= 1
 0 <= x167 <= 1
 0 <= x168 <= 1
 0 <= x169 <= 1
 0 <= x170 <= 1
 0 <= x171 <= 1
 0 <= x172 <= 1
 0 <= x173 <= 1
 0 <= x174 <= 1
 0 <= x175 <= 1
 0 <= x176 <= 1
 0 <= x177 <= 1
 0 <= x178 <= 1
 0 <= x179 <= 1
 0 <= x180 <= 1
 0 <= x181 <= 1
 0 <= x182 <= 1
 0 <= x183 <= 1
 0 <= x184 <= 1
 0 <= x185 <= 1
 0 <= x186 <= 1
 0 <= x187 <= 1
 0 <= x188 <= 1
 0 <= x189 <= 1
 0 <= x190 <= 1
 0 <= x191 <= 1
 0 <= x192 <= 1
 0 <= x193 <= 1
 0 <= x194 <= 1
 0 <= x195 <= 1
 0 <= x196 <= 1
 0 <= x197 <= 1
 0 <= x198 <= 1
 0 <= x199 <= 1
 0 <= x200 <= 1
 0 <= x201 <= 1
 0 <= x202 <= 1
 0 <= x203 <= 1
 0 <= x204 <= 1
 0 <= x205 <= 1
 0 <= x206 <= 1
 0 <= x207 <= 1
 0 <= x208 <= 1
 0 <= x209 <= 1
 0 <= x210 <= 1
 0 <= x211 <= 1
 0 <= x212 <= 1
 0 <= x213 <= 1
 0 <= x214 <= 1
 0 <= x215 <= 1
 0 <= x216 <= 1
 0 <= x217 <= 1
 0 <= x218 <= 1
 0 <= x219 <= 1
 0 <= x220 <= 1
 0 <= x221 <= 1
 0 <= x222 <= 1
 0 <= x223 <= 1
 0 <= x224 <= 1
 0 <= x225 <= 1
 0 <= x226 <= 1
 0 <= x227 <= 1
 0 <= x228 <= 1
 0 <= x229 <= 1
 0 <= x230 <= 1
 0 <= x231 <= 1
 0 <= x232 <= 1
 0 <= x233 <= 1
 0 <= x234 <= 1
 0 <= x235 <= 1
 0 <= x236 <= 1
 0 <= x237 <= 1
 0 <= x238 <= 1
 0 <= x239 <= 1
 0 <= x240 <= 1
 0 <= x241 <= 1
 0 <= x242 <= 1
 0 <= x243 <= 1
 0 <= x244 <= 1
 0 <= x245 <= 1
 0 <= x246 <= 1
 0 <= x247 <= 1
 0 <= x248 <= 1
 0 <= x249 <= 1
 0 <= x250 <= 1
 0 <= x251 <= 1
 0 <= x252 <= 1
 0 <= x253 <= 1
 0 <= x254 <= 1
 0 <= x255 <= 1
 0 <= x256 <= 1
 0 <= x257 <= 1
 0 <= x258 <= 1
 0 <= x259 <= 1
 0 <= x260 <= 1
 0 <= x261 <= 1
 0 <= x262 <= 1
 0 <= x263 <= 1
 0 <= x264 <= 1
 0 <= x265 <= 1
 0 <= x266 <= 1
 0 <= x267 <= 1
 0 <= x268 <= 1
 0 <= x269 <= 1
 0 <= x270 <= 1
 0 <= x271 <= 1
 0 <= x272 <= 1
 0 <= x273 <= 1
 0 <= x274 <= 1
 0 <= x275 <= 1
 0 <= x276 <= 1
 0 <= x277 <= 1
 0 <= x278 <= 1
 0 <= x279 <= 1
 0 <= x280 <= 1
 0 <= x281 <= 1
 0 <= x282 <= 1
 0 <= x283 <= 1
 0 <= x284 <= 1
 0 <= x285 <= 1
 0 <= x286 <= 1
 0 <= x287 <= 1
 0 <= x288 <= 1
 0 <= x289 <= 1
 0 <= x290 <= 1
 0 <= x291 <= 1
 0 <= x292 <= 1
 0 <= x293 <= 1
 0 <= x294 <= 1
 0 <= x295 <= 1
 0 <= x296 <= 1
 0 <= x297 <= 1
 0 <= x298 <= 1
 0 <= x299 <= 1
 0 <= x300 <= 1
 0 <= x301 <= 1
 0 <= x302 <= 1
 0 <= x303 <= 1
 0 <= x304 <= 1
 0 <= x305 <= 1
 0 <= x306 <= 1
 0 <= x307 <= 1
 0 <= x308 <= 1
 0 <= x309 <= 1
 0 <= x310 <= 1
 0 <= x311 <= 1
 0 <= x312 <= 1
 0 <= x313 <= 1
 0 <= x314 <= 1
 0 <= x315 <= 1
 0 <= x316 <= 1
 0 <= x317 <= 1
 0 <= x318 <= 1
 0 <= x319 <= 1
 0 <= x320 <= 1
 0 <= x321 <= 1
 0 <= x322 <= 1
 0 <= x323 <= 1
 0 <= x324 <= 1
 0 <= x325 <= 1
 0 <= x326 <= 1
 0 <= x327 <= 1
 0 <= x328 <= 1
 0 <= x329 <= 1
 0 <= x330 <= 1
 0 <= x331 <= 1
 0 <= x332 <= 1
 0 <= x333 <= 1
 0 <= x334 <= 1
 0 <= x335 <= 1
 0 <= x336 <= 1
 0 <= x337 <= 1
 0 <= x338 <= 1
 0 <= x339 <= 1
 0 <= x340 <= 1
 0 <= x341 <= 1
 0 <= x342 <= 1
 0 <= x343 <= 1
 0 <= x344 <= 1
 0 <= x345 <= 1
 0 <= x346 <= 1
 0 <= x347 <= 1
 0 <= x348 <= 1
 0 <= x349 <= 1
 0 <= x350 <= 1
 0 <= x351 <= 1
 0 <= x352 <= 1
 0 <= x353 <= 1
 0 <= x354 <= 1
 0 <= x355 <= 1
 0 <= x356 <= 1
 0 <= x357 <= 1
 0 <= x358 <= 1
 0 <= x359 <= 1
 0 <= x360 <= 1
Binaries
 x301  x302  x303  x304  x305  x306  x307  x308  x309  x310  x311  x312  x313 
 x314  x315  x316  x317  x318  x319  x320  x321  x322  x323  x324  x325  x326 
 x327  x328  x329  x330  x331  x332  x333  x334  x335  x336  x337  x338  x339 
 x340  x341  x342  x343  x344  x345  x346  x347  x348  x349  x350  x351  x352 
 x353  x354  x355  x356  x357  x358  x359  x360 
End
